100 90 10
0 1 0
1 2 0
2 3 0
3 4 0
4 5 0
5 6 0
6 7 0
7 8 0
8 9 0
10 11 1
11 12 1
12 13 1
13 14 1
14 15 1
15 16 1
16 17 1
17 18 1
18 19 1
20 21 2
21 22 2
22 23 2
23 24 2
24 25 2
25 26 2
26 27 2
27 28 2
28 29 2
30 31 3
31 32 3
32 33 3
33 34 3
34 35 3
35 36 3
36 37 3
37 38 3
38 39 3
40 41 4
41 42 4
42 43 4
43 44 4
44 45 4
45 46 4
46 47 4
47 48 4
48 49 4
50 51 5
51 52 5
52 53 5
53 54 5
54 55 5
55 56 5
56 57 5
57 58 5
58 59 5
60 61 6
61 62 6
62 63 6
63 64 6
64 65 6
65 66 6
66 67 6
67 68 6
68 69 6
70 71 7
71 72 7
72 73 7
73 74 7
74 75 7
75 76 7
76 77 7
77 78 7
78 79 7
80 81 8
81 82 8
82 83 8
83 84 8
84 85 8
85 86 8
86 87 8
87 88 8
88 89 8
90 91 9
91 92 9
92 93 9
93 94 9
94 95 9
95 96 9
96 97 9
97 98 9
98 99 9
1 0 55
1 1 74
1 2 45
1 3 23
1 4 76
1 5 19
1 6 18
1 7 61
1 8 44
1 9 11
1 0 63
1 1 43
1 2 51
1 3 18
1 4 42
1 7 11
1 6 29
1 5 52
1 9 29
1 8 88
1 2 88
1 1 31
1 0 47
1 4 10
1 3 62
1 5 60
1 6 58
1 7 29
1 8 52
1 9 92
1 2 16
1 1 71
1 0 55
1 4 55
1 3 9
1 7 49
1 6 83
1 5 54
1 9 7
1 8 57
1 1 7
1 0 41
1 4 92
1 3 94
1 2 46
1 6 79
1 5 34
1 9 38
1 8 8
1 7 18
1 1 25
1 0 5
1 4 89
1 3 94
1 2 14
1 6 94
1 5 20
1 9 23
1 8 44
1 7 39
1 1 24
1 2 21
1 4 47
1 0 40
1 3 94
1 6 71
1 7 89
1 9 75
1 5 97
1 8 15
1 1 5
1 2 7
1 4 74
1 0 28
1 3 72
1 5 61
1 7 9
1 8 53
1 9 32
1 6 97
1 0 34
1 2 52
1 3 37
1 4 6
1 1 94
1 6 6
1 7 56
1 9 41
1 5 5
1 8 16
1 0 77
1 2 74
1 3 82
1 4 10
1 1 29
1 5 15
1 7 51
1 8 65
1 9 37
1 6 21